Optimize a model with 2 rows, 3 columns and 5 nonzeros
Model has 5 quadratic objective terms
Presolve time: 0.00s
Presolved: 2 rows, 3 columns, 5 nonzeros
Presolved model has 5 quadratic objective terms
Ordering time: 0.00s

Barrier statistics:
 Free vars  : 2
 AA' NZ     : 6.000e+00
 Factor NZ  : 1.000e+01
 Factor Ops : 3.000e+01 (less than 1 second per iteration)
 Threads    : 1

                  Objective                Residual
Iter       Primal          Dual         Primal    Dual     Compl     Time
   0   1.67014674e+05 -1.71013100e+05  1.50e+03 3.33e+02  1.00e+06     0s
   1   3.56281760e+04 -3.91297514e+04  2.29e+02 3.82e+01  1.20e+05     0s
   2   2.49674894e+00 -4.41044986e+03  1.80e+00 4.00e-01  1.83e+03     0s
   3   2.04993259e+00 -1.92762957e+03  1.80e-06 4.00e-07  2.41e+02     0s
   4   2.04903748e+00 -3.99716640e-01  4.18e-10 9.26e-11  3.06e-01     0s
   5   1.88361522e+00  1.77179063e+00  6.22e-12 1.38e-12  1.40e-02     0s
   6   1.85757504e+00  1.85262111e+00  3.33e-16 1.11e-16  6.19e-04     0s
   7   1.85714327e+00  1.85713834e+00  2.22e-16 1.11e-16  6.17e-07     0s
   8   1.85714286e+00  1.85714285e+00  0.00e+00 1.38e-16  6.18e-10     0s

Barrier solved model in 8 iterations and 0.00 seconds
Optimal objective 1.85714286e+00

Optimize a model with 2 rows, 3 columns and 5 nonzeros
Model has 5 quadratic objective terms
Presolve removed 1 rows and 1 columns
Presolve time: 0.00s
Presolved: 2 rows, 3 columns, 5 nonzeros
Variable types: 0 continuous, 3 integer (3 binary)
Found heuristic solution: objective 2.0000000

Root relaxation: infeasible, 0 iterations, 0.00 seconds

Explored 0 nodes (0 simplex iterations) in 0.00 seconds
Thread count was 4 (of 4 available processors)

Optimal solution found (tolerance 1.00e-04)
Best objective 2.000000000000e+00, best bound 2.000000000000e+00, gap 0.0%

Gurobi 5.0.1 (linux64) logging started Sun Oct  7 19:56:31 2012

Optimize a model with 2 rows, 3 columns and 5 nonzeros
Model has 5 quadratic objective terms
Presolve time: 0.00s
Presolved: 2 rows, 3 columns, 5 nonzeros
Presolved model has 5 quadratic objective terms
Ordering time: 0.00s

Barrier statistics:
 Free vars  : 2
 AA' NZ     : 6.000e+00
 Factor NZ  : 1.000e+01
 Factor Ops : 3.000e+01 (less than 1 second per iteration)
 Threads    : 1

                  Objective                Residual
Iter       Primal          Dual         Primal    Dual     Compl     Time
   0   1.67014674e+05 -1.71013100e+05  1.50e+03 3.33e+02  1.00e+06     0s
   1   3.56281760e+04 -3.91297514e+04  2.29e+02 3.82e+01  1.20e+05     0s
   2   2.49674894e+00 -4.41044986e+03  1.80e+00 4.00e-01  1.83e+03     0s
   3   2.04993259e+00 -1.92762957e+03  1.80e-06 4.00e-07  2.41e+02     0s
   4   2.04903748e+00 -3.99716640e-01  4.18e-10 9.26e-11  3.06e-01     0s
   5   1.88361522e+00  1.77179063e+00  6.22e-12 1.38e-12  1.40e-02     0s
   6   1.85757504e+00  1.85262111e+00  3.33e-16 1.11e-16  6.19e-04     0s
   7   1.85714327e+00  1.85713834e+00  2.22e-16 1.11e-16  6.17e-07     0s
   8   1.85714286e+00  1.85714285e+00  0.00e+00 1.38e-16  6.18e-10     0s

Barrier solved model in 8 iterations and 0.01 seconds
Optimal objective 1.85714286e+00

Optimize a model with 2 rows, 3 columns and 5 nonzeros
Model has 5 quadratic objective terms
Presolve removed 1 rows and 1 columns
Presolve time: 0.00s
Presolved: 2 rows, 3 columns, 5 nonzeros
Variable types: 0 continuous, 3 integer (3 binary)
Found heuristic solution: objective 2.0000000

Root relaxation: infeasible, 0 iterations, 0.00 seconds

Explored 0 nodes (0 simplex iterations) in 0.00 seconds
Thread count was 4 (of 4 available processors)

Optimal solution found (tolerance 1.00e-04)
Best objective 2.000000000000e+00, best bound 2.000000000000e+00, gap 0.0%

Gurobi 5.0.1 (linux64) logging started Sun Oct  7 20:36:50 2012

